data/lp_files/q3/87_8.lp
\ Model foo
\ LP format - for model browsing. Use MPS format to capture full model detail.
Minimize
  z
Subject To
 allocateEach[1]: x[1,1] + x[2,1] + x[3,1] + x[4,1] + x[5,1] = 1
 allocateEach[2]: x[1,2] + x[2,2] + x[3,2] + x[4,2] + x[5,2] = 1
 allocateEach[3]: x[1,3] + x[2,3] + x[3,3] + x[4,3] + x[5,3] = 1
 allocateEach[4]: x[1,4] + x[2,4] + x[3,4] + x[4,4] + x[5,4] = 1
 allocateEach[5]: x[1,5] + x[2,5] + x[3,5] + x[4,5] + x[5,5] = 1
 allocateEach[6]: x[1,6] + x[2,6] + x[3,6] + x[4,6] + x[5,6] = 1
 allocateEach[7]: x[1,7] + x[2,7] + x[3,7] + x[4,7] + x[5,7] = 1
 allocateAllCash: cashProportion[1] + cashProportion[2] + cashProportion[3]
   + cashProportion[4] + cashProportion[5] = 1
 findWorstP[1,2]: z + 0.2057031189735415 cashProportion[1]
   - 0.2057031189735415 cashProportion[2] + 0.1814815767144069 x[1,1]
   + 0.2518577562932298 x[1,2] + 0.00678820292612687 x[1,3]
   + 0.0551541487747808 x[1,4] + 0.088015222030804 x[1,5]
   + 0.0559512483608033 x[1,6] + 0.1550487259263069 x[1,7]
   - 0.1814815767144069 x[2,1] - 0.2518577562932298 x[2,2]
   - 0.00678820292612687 x[2,3] - 0.0551541487747808 x[2,4]
   - 0.088015222030804 x[2,5] - 0.0559512483608033 x[2,6]
   - 0.1550487259263069 x[2,7] >= 0
 findWorstP[1,3]: z + 0.2057031189735415 cashProportion[1]
   - 0.2057031189735415 cashProportion[3] + 0.1814815767144069 x[1,1]
   + 0.2518577562932298 x[1,2] + 0.00678820292612687 x[1,3]
   + 0.0551541487747808 x[1,4] + 0.088015222030804 x[1,5]
   + 0.0559512483608033 x[1,6] + 0.1550487259263069 x[1,7]
   - 0.1814815767144069 x[3,1] - 0.2518577562932298 x[3,2]
   - 0.00678820292612687 x[3,3] - 0.0551541487747808 x[3,4]
   - 0.088015222030804 x[3,5] - 0.0559512483608033 x[3,6]
   - 0.1550487259263069 x[3,7] >= 0
 findWorstP[1,4]: z + 0.2057031189735415 cashProportion[1]
   - 0.2057031189735415 cashProportion[4] + 0.1814815767144069 x[1,1]
   + 0.2518577562932298 x[1,2] + 0.00678820292612687 x[1,3]
   + 0.0551541487747808 x[1,4] + 0.088015222030804 x[1,5]
   + 0.0559512483608033 x[1,6] + 0.1550487259263069 x[1,7]
   - 0.1814815767144069 x[4,1] - 0.2518577562932298 x[4,2]
   - 0.00678820292612687 x[4,3] - 0.0551541487747808 x[4,4]
   - 0.088015222030804 x[4,5] - 0.0559512483608033 x[4,6]
   - 0.1550487259263069 x[4,7] >= 0
 findWorstP[1,5]: z + 0.2057031189735415 cashProportion[1]
   - 0.2057031189735415 cashProportion[5] + 0.1814815767144069 x[1,1]
   + 0.2518577562932298 x[1,2] + 0.00678820292612687 x[1,3]
   + 0.0551541487747808 x[1,4] + 0.088015222030804 x[1,5]
   + 0.0559512483608033 x[1,6] + 0.1550487259263069 x[1,7]
   - 0.1814815767144069 x[5,1] - 0.2518577562932298 x[5,2]
   - 0.00678820292612687 x[5,3] - 0.0551541487747808 x[5,4]
   - 0.088015222030804 x[5,5] - 0.0559512483608033 x[5,6]
   - 0.1550487259263069 x[5,7] >= 0
 findWorstP[2,1]: z - 0.1664655208289983 cashProportion[1]
   + 0.1664655208289983 cashProportion[2] - 0.1676099712846977 x[1,1]
   - 0.1877314911149028 x[1,2] - 0.0141495692704649 x[1,3]
   - 0.1753506180032461 x[1,4] - 0.1121561446585376 x[1,5]
   - 0.1517333222356319 x[1,6] - 0.0248033626035207 x[1,7]
   + 0.1676099712846977 x[2,1] + 0.1877314911149028 x[2,2]
   + 0.0141495692704649 x[2,3] + 0.1753506180032461 x[2,4]
   + 0.1121561446585376 x[2,5] + 0.1517333222356319 x[2,6]
   + 0.0248033626035207 x[2,7] >= 0
 findWorstP[2,3]: z + 0.1664655208289983 cashProportion[2]
   - 0.1664655208289983 cashProportion[3] + 0.1676099712846977 x[2,1]
   + 0.1877314911149028 x[2,2] + 0.0141495692704649 x[2,3]
   + 0.1753506180032461 x[2,4] + 0.1121561446585376 x[2,5]
   + 0.1517333222356319 x[2,6] + 0.0248033626035207 x[2,7]
   - 0.1676099712846977 x[3,1] - 0.1877314911149028 x[3,2]
   - 0.0141495692704649 x[3,3] - 0.1753506180032461 x[3,4]
   - 0.1121561446585376 x[3,5] - 0.1517333222356319 x[3,6]
   - 0.0248033626035207 x[3,7] >= 0
 findWorstP[2,4]: z + 0.1664655208289983 cashProportion[2]
   - 0.1664655208289983 cashProportion[4] + 0.1676099712846977 x[2,1]
   + 0.1877314911149028 x[2,2] + 0.0141495692704649 x[2,3]
   + 0.1753506180032461 x[2,4] + 0.1121561446585376 x[2,5]
   + 0.1517333222356319 x[2,6] + 0.0248033626035207 x[2,7]
   - 0.1676099712846977 x[4,1] - 0.1877314911149028 x[4,2]
   - 0.0141495692704649 x[4,3] - 0.1753506180032461 x[4,4]
   - 0.1121561446585376 x[4,5] - 0.1517333222356319 x[4,6]
   - 0.0248033626035207 x[4,7] >= 0
 findWorstP[2,5]: z + 0.1664655208289983 cashProportion[2]
   - 0.1664655208289983 cashProportion[5] + 0.1676099712846977 x[2,1]
   + 0.1877314911149028 x[2,2] + 0.0141495692704649 x[2,3]
   + 0.1753506180032461 x[2,4] + 0.1121561446585376 x[2,5]
   + 0.1517333222356319 x[2,6] + 0.0248033626035207 x[2,7]
   - 0.1676099712846977 x[5,1] - 0.1877314911149028 x[5,2]
   - 0.0141495692704649 x[5,3] - 0.1753506180032461 x[5,4]
   - 0.1121561446585376 x[5,5] - 0.1517333222356319 x[5,6]
   - 0.0248033626035207 x[5,7] >= 0
 findWorstP[3,1]: z - 0.1874897466544798 cashProportion[1]
   + 0.1874897466544798 cashProportion[3] - 0.0426304811455624 x[1,1]
   - 0.1360472474161569 x[1,2] - 0.2302842813283648 x[1,3]
   - 0.0312170428179709 x[1,4] - 0.1183763387939722 x[1,5]
   - 0.2332372448381729 x[1,6] - 0.02071761700532 x[1,7]
   + 0.0426304811455624 x[3,1] + 0.1360472474161569 x[3,2]
   + 0.2302842813283648 x[3,3] + 0.0312170428179709 x[3,4]
   + 0.1183763387939722 x[3,5] + 0.2332372448381729 x[3,6]
   + 0.02071761700532 x[3,7] >= 0
 findWorstP[3,2]: z - 0.1874897466544798 cashProportion[2]
   + 0.1874897466544798 cashProportion[3] - 0.0426304811455624 x[2,1]
   - 0.1360472474161569 x[2,2] - 0.2302842813283648 x[2,3]
   - 0.0312170428179709 x[2,4] - 0.1183763387939722 x[2,5]
   - 0.2332372448381729 x[2,6] - 0.02071761700532 x[2,7]
   + 0.0426304811455624 x[3,1] + 0.1360472474161569 x[3,2]
   + 0.2302842813283648 x[3,3] + 0.0312170428179709 x[3,4]
   + 0.1183763387939722 x[3,5] + 0.2332372448381729 x[3,6]
   + 0.02071761700532 x[3,7] >= 0
 findWorstP[3,4]: z + 0.1874897466544798 cashProportion[3]
   - 0.1874897466544798 cashProportion[4] + 0.0426304811455624 x[3,1]
   + 0.1360472474161569 x[3,2] + 0.2302842813283648 x[3,3]
   + 0.0312170428179709 x[3,4] + 0.1183763387939722 x[3,5]
   + 0.2332372448381729 x[3,6] + 0.02071761700532 x[3,7]
   - 0.0426304811455624 x[4,1] - 0.1360472474161569 x[4,2]
   - 0.2302842813283648 x[4,3] - 0.0312170428179709 x[4,4]
   - 0.1183763387939722 x[4,5] - 0.2332372448381729 x[4,6]
   - 0.02071761700532 x[4,7] >= 0
 findWorstP[3,5]: z + 0.1874897466544798 cashProportion[3]
   - 0.1874897466544798 cashProportion[5] + 0.0426304811455624 x[3,1]
   + 0.1360472474161569 x[3,2] + 0.2302842813283648 x[3,3]
   + 0.0312170428179709 x[3,4] + 0.1183763387939722 x[3,5]
   + 0.2332372448381729 x[3,6] + 0.02071761700532 x[3,7]
   - 0.0426304811455624 x[5,1] - 0.1360472474161569 x[5,2]
   - 0.2302842813283648 x[5,3] - 0.0312170428179709 x[5,4]
   - 0.1183763387939722 x[5,5] - 0.2332372448381729 x[5,6]
   - 0.02071761700532 x[5,7] >= 0
 findWorstP[4,1]: z - 0.1424958141854583 cashProportion[1]
   + 0.1424958141854583 cashProportion[4] - 0.1781197677318229 x[1,1]
   - 0.150671511524349 x[1,2] - 0.1505468276869367 x[1,3]
   - 0.0275373160913398 x[1,4] - 0.1593103202593424 x[1,5]
   - 0.0924797834063624 x[1,6] - 0.0988386591143885 x[1,7]
   + 0.1781197677318229 x[4,1] + 0.150671511524349 x[4,2]
   + 0.1505468276869367 x[4,3] + 0.0275373160913398 x[4,4]
   + 0.1593103202593424 x[4,5] + 0.0924797834063624 x[4,6]
   + 0.0988386591143885 x[4,7] >= 0
 findWorstP[4,2]: z - 0.1424958141854583 cashProportion[2]
   + 0.1424958141854583 cashProportion[4] - 0.1781197677318229 x[2,1]
   - 0.150671511524349 x[2,2] - 0.1505468276869367 x[2,3]
   - 0.0275373160913398 x[2,4] - 0.1593103202593424 x[2,5]
   - 0.0924797834063624 x[2,6] - 0.0988386591143885 x[2,7]
   + 0.1781197677318229 x[4,1] + 0.150671511524349 x[4,2]
   + 0.1505468276869367 x[4,3] + 0.0275373160913398 x[4,4]
   + 0.1593103202593424 x[4,5] + 0.0924797834063624 x[4,6]
   + 0.0988386591143885 x[4,7] >= 0
 findWorstP[4,3]: z - 0.1424958141854583 cashProportion[3]
   + 0.1424958141854583 cashProportion[4] - 0.1781197677318229 x[3,1]
   - 0.150671511524349 x[3,2] - 0.1505468276869367 x[3,3]
   - 0.0275373160913398 x[3,4] - 0.1593103202593424 x[3,5]
   - 0.0924797834063624 x[3,6] - 0.0988386591143885 x[3,7]
   + 0.1781197677318229 x[4,1] + 0.150671511524349 x[4,2]
   + 0.1505468276869367 x[4,3] + 0.0275373160913398 x[4,4]
   + 0.1593103202593424 x[4,5] + 0.0924797834063624 x[4,6]
   + 0.0988386591143885 x[4,7] >= 0
 findWorstP[4,5]: z + 0.1424958141854583 cashProportion[4]
   - 0.1424958141854583 cashProportion[5] + 0.1781197677318229 x[4,1]
   + 0.150671511524349 x[4,2] + 0.1505468276869367 x[4,3]
   + 0.0275373160913398 x[4,4] + 0.1593103202593424 x[4,5]
   + 0.0924797834063624 x[4,6] + 0.0988386591143885 x[4,7]
   - 0.1781197677318229 x[5,1] - 0.150671511524349 x[5,2]
   - 0.1505468276869367 x[5,3] - 0.0275373160913398 x[5,4]
   - 0.1593103202593424 x[5,5] - 0.0924797834063624 x[5,6]
   - 0.0988386591143885 x[5,7] >= 0
 findWorstP[5,1]: z - 0.2007729759574362 cashProportion[1]
   + 0.2007729759574362 cashProportion[5] - 0.1226722883099935 x[1,1]
   - 0.00245946895547859 x[1,2] - 0.0456256587863274 x[1,3]
   - 0.2347287055162375 x[1,4] - 0.1320835215579983 x[1,5]
   - 0.1201375294885309 x[1,6] - 0.1415198514279978 x[1,7]
   + 0.1226722883099935 x[5,1] + 0.00245946895547859 x[5,2]
   + 0.0456256587863274 x[5,3] + 0.2347287055162375 x[5,4]
   + 0.1320835215579983 x[5,5] + 0.1201375294885309 x[5,6]
   + 0.1415198514279978 x[5,7] >= 0
 findWorstP[5,2]: z - 0.2007729759574362 cashProportion[2]
   + 0.2007729759574362 cashProportion[5] - 0.1226722883099935 x[2,1]
   - 0.00245946895547859 x[2,2] - 0.0456256587863274 x[2,3]
   - 0.2347287055162375 x[2,4] - 0.1320835215579983 x[2,5]
   - 0.1201375294885309 x[2,6] - 0.1415198514279978 x[2,7]
   + 0.1226722883099935 x[5,1] + 0.00245946895547859 x[5,2]
   + 0.0456256587863274 x[5,3] + 0.2347287055162375 x[5,4]
   + 0.1320835215579983 x[5,5] + 0.1201375294885309 x[5,6]
   + 0.1415198514279978 x[5,7] >= 0
 findWorstP[5,3]: z - 0.2007729759574362 cashProportion[3]
   + 0.2007729759574362 cashProportion[5] - 0.1226722883099935 x[3,1]
   - 0.00245946895547859 x[3,2] - 0.0456256587863274 x[3,3]
   - 0.2347287055162375 x[3,4] - 0.1320835215579983 x[3,5]
   - 0.1201375294885309 x[3,6] - 0.1415198514279978 x[3,7]
   + 0.1226722883099935 x[5,1] + 0.00245946895547859 x[5,2]
   + 0.0456256587863274 x[5,3] + 0.2347287055162375 x[5,4]
   + 0.1320835215579983 x[5,5] + 0.1201375294885309 x[5,6]
   + 0.1415198514279978 x[5,7] >= 0
 findWorstP[5,4]: z - 0.2007729759574362 cashProportion[4]
   + 0.2007729759574362 cashProportion[5] - 0.1226722883099935 x[4,1]
   - 0.00245946895547859 x[4,2] - 0.0456256587863274 x[4,3]
   - 0.2347287055162375 x[4,4] - 0.1320835215579983 x[4,5]
   - 0.1201375294885309 x[4,6] - 0.1415198514279978 x[4,7]
   + 0.1226722883099935 x[5,1] + 0.00245946895547859 x[5,2]
   + 0.0456256587863274 x[5,3] + 0.2347287055162375 x[5,4]
   + 0.1320835215579983 x[5,5] + 0.1201375294885309 x[5,6]
   + 0.1415198514279978 x[5,7] >= 0
Bounds
 z <= 1
 -infinity <= cashProportion[1] <= 1
 -infinity <= cashProportion[2] <= 1
 -infinity <= cashProportion[3] <= 1
 -infinity <= cashProportion[4] <= 1
 -infinity <= cashProportion[5] <= 1
Binaries
 x[1,1] x[1,2] x[1,3] x[1,4] x[1,5] x[1,6] x[1,7] x[2,1] x[2,2] x[2,3]
 x[2,4] x[2,5] x[2,6] x[2,7] x[3,1] x[3,2] x[3,3] x[3,4] x[3,5] x[3,6]
 x[3,7] x[4,1] x[4,2] x[4,3] x[4,4] x[4,5] x[4,6] x[4,7] x[5,1] x[5,2]
 x[5,3] x[5,4] x[5,5] x[5,6] x[5,7]
End
