data/mps_files/pEFS/87_8.mps
NAME foo
ROWS
 N  OBJ
 E  allocateEach[1]
 E  allocateEach[2]
 E  allocateEach[3]
 E  allocateEach[4]
 E  allocateEach[5]
 E  allocateEach[6]
 E  allocateEach[7]
 E  allocateAllCash
 G  findWorstP[1,2]
 G  findWorstP[1,3]
 G  findWorstP[1,4]
 G  findWorstP[1,5]
 G  findWorstP[2,1]
 G  findWorstP[2,3]
 G  findWorstP[2,4]
 G  findWorstP[2,5]
 G  findWorstP[3,1]
 G  findWorstP[3,2]
 G  findWorstP[3,4]
 G  findWorstP[3,5]
 G  findWorstP[4,1]
 G  findWorstP[4,2]
 G  findWorstP[4,3]
 G  findWorstP[4,5]
 G  findWorstP[5,1]
 G  findWorstP[5,2]
 G  findWorstP[5,3]
 G  findWorstP[5,4]
COLUMNS
    z         OBJ       1
    z         findWorstP[1,2]  1
    z         findWorstP[1,3]  1
    z         findWorstP[1,4]  1
    z         findWorstP[1,5]  1
    z         findWorstP[2,1]  1
    z         findWorstP[2,3]  1
    z         findWorstP[2,4]  1
    z         findWorstP[2,5]  1
    z         findWorstP[3,1]  1
    z         findWorstP[3,2]  1
    z         findWorstP[3,4]  1
    z         findWorstP[3,5]  1
    z         findWorstP[4,1]  1
    z         findWorstP[4,2]  1
    z         findWorstP[4,3]  1
    z         findWorstP[4,5]  1
    z         findWorstP[5,1]  1
    z         findWorstP[5,2]  1
    z         findWorstP[5,3]  1
    z         findWorstP[5,4]  1
    cashProportion[1]  allocateAllCash  1
    cashProportion[1]  findWorstP[1,2]  2.0570311897354146e-01
    cashProportion[1]  findWorstP[1,3]  2.0570311897354146e-01
    cashProportion[1]  findWorstP[1,4]  2.0570311897354146e-01
    cashProportion[1]  findWorstP[1,5]  2.0570311897354146e-01
    cashProportion[1]  findWorstP[2,1]  -1.6646552082899832e-01
    cashProportion[1]  findWorstP[3,1]  -1.8748974665447984e-01
    cashProportion[1]  findWorstP[4,1]  -1.4249581418545834e-01
    cashProportion[1]  findWorstP[5,1]  -2.0077297595743618e-01
    cashProportion[2]  allocateAllCash  1
    cashProportion[2]  findWorstP[1,2]  -2.0570311897354146e-01
    cashProportion[2]  findWorstP[2,1]  1.6646552082899832e-01
    cashProportion[2]  findWorstP[2,3]  1.6646552082899832e-01
    cashProportion[2]  findWorstP[2,4]  1.6646552082899832e-01
    cashProportion[2]  findWorstP[2,5]  1.6646552082899832e-01
    cashProportion[2]  findWorstP[3,2]  -1.8748974665447984e-01
    cashProportion[2]  findWorstP[4,2]  -1.4249581418545834e-01
    cashProportion[2]  findWorstP[5,2]  -2.0077297595743618e-01
    cashProportion[3]  allocateAllCash  1
    cashProportion[3]  findWorstP[1,3]  -2.0570311897354146e-01
    cashProportion[3]  findWorstP[2,3]  -1.6646552082899832e-01
    cashProportion[3]  findWorstP[3,1]  1.8748974665447984e-01
    cashProportion[3]  findWorstP[3,2]  1.8748974665447984e-01
    cashProportion[3]  findWorstP[3,4]  1.8748974665447984e-01
    cashProportion[3]  findWorstP[3,5]  1.8748974665447984e-01
    cashProportion[3]  findWorstP[4,3]  -1.4249581418545834e-01
    cashProportion[3]  findWorstP[5,3]  -2.0077297595743618e-01
    cashProportion[4]  allocateAllCash  1
    cashProportion[4]  findWorstP[1,4]  -2.0570311897354146e-01
    cashProportion[4]  findWorstP[2,4]  -1.6646552082899832e-01
    cashProportion[4]  findWorstP[3,4]  -1.8748974665447984e-01
    cashProportion[4]  findWorstP[4,1]  1.4249581418545834e-01
    cashProportion[4]  findWorstP[4,2]  1.4249581418545834e-01
    cashProportion[4]  findWorstP[4,3]  1.4249581418545834e-01
    cashProportion[4]  findWorstP[4,5]  1.4249581418545834e-01
    cashProportion[4]  findWorstP[5,4]  -2.0077297595743618e-01
    cashProportion[5]  allocateAllCash  1
    cashProportion[5]  findWorstP[1,5]  -2.0570311897354146e-01
    cashProportion[5]  findWorstP[2,5]  -1.6646552082899832e-01
    cashProportion[5]  findWorstP[3,5]  -1.8748974665447984e-01
    cashProportion[5]  findWorstP[4,5]  -1.4249581418545834e-01
    cashProportion[5]  findWorstP[5,1]  2.0077297595743618e-01
    cashProportion[5]  findWorstP[5,2]  2.0077297595743618e-01
    cashProportion[5]  findWorstP[5,3]  2.0077297595743618e-01
    cashProportion[5]  findWorstP[5,4]  2.0077297595743618e-01
    MARKER    'MARKER'                 'INTORG'
    x[1,1]    allocateEach[1]  1
    x[1,1]    findWorstP[1,2]  1.8148157671440693e-01
    x[1,1]    findWorstP[1,3]  1.8148157671440693e-01
    x[1,1]    findWorstP[1,4]  1.8148157671440693e-01
    x[1,1]    findWorstP[1,5]  1.8148157671440693e-01
    x[1,1]    findWorstP[2,1]  -1.6760997128469765e-01
    x[1,1]    findWorstP[3,1]  -4.2630481145562352e-02
    x[1,1]    findWorstP[4,1]  -1.7811976773182289e-01
    x[1,1]    findWorstP[5,1]  -1.2267228830999349e-01
    x[1,2]    allocateEach[2]  1
    x[1,2]    findWorstP[1,2]  2.5185775629322982e-01
    x[1,2]    findWorstP[1,3]  2.5185775629322982e-01
    x[1,2]    findWorstP[1,4]  2.5185775629322982e-01
    x[1,2]    findWorstP[1,5]  2.5185775629322982e-01
    x[1,2]    findWorstP[2,1]  -1.8773149111490281e-01
    x[1,2]    findWorstP[3,1]  -1.3604724741615692e-01
    x[1,2]    findWorstP[4,1]  -0.150671511524349
    x[1,2]    findWorstP[5,1]  -2.4594689554785928e-03
    x[1,3]    allocateEach[3]  1
    x[1,3]    findWorstP[1,2]  6.7882029261268672e-03
    x[1,3]    findWorstP[1,3]  6.7882029261268672e-03
    x[1,3]    findWorstP[1,4]  6.7882029261268672e-03
    x[1,3]    findWorstP[1,5]  6.7882029261268672e-03
    x[1,3]    findWorstP[2,1]  -1.4149569270464854e-02
    x[1,3]    findWorstP[3,1]  -2.3028428132836484e-01
    x[1,3]    findWorstP[4,1]  -1.5054682768693670e-01
    x[1,3]    findWorstP[5,1]  -4.5625658786327364e-02
    x[1,4]    allocateEach[4]  1
    x[1,4]    findWorstP[1,2]  5.5154148774780795e-02
    x[1,4]    findWorstP[1,3]  5.5154148774780795e-02
    x[1,4]    findWorstP[1,4]  5.5154148774780795e-02
    x[1,4]    findWorstP[1,5]  5.5154148774780795e-02
    x[1,4]    findWorstP[2,1]  -1.7535061800324606e-01
    x[1,4]    findWorstP[3,1]  -3.1217042817970893e-02
    x[1,4]    findWorstP[4,1]  -2.7537316091339817e-02
    x[1,4]    findWorstP[5,1]  -2.3472870551623753e-01
    x[1,5]    allocateEach[5]  1
    x[1,5]    findWorstP[1,2]  8.8015222030804044e-02
    x[1,5]    findWorstP[1,3]  8.8015222030804044e-02
    x[1,5]    findWorstP[1,4]  8.8015222030804044e-02
    x[1,5]    findWorstP[1,5]  8.8015222030804044e-02
    x[1,5]    findWorstP[2,1]  -1.1215614465853760e-01
    x[1,5]    findWorstP[3,1]  -1.1837633879397219e-01
    x[1,5]    findWorstP[4,1]  -1.5931032025934239e-01
    x[1,5]    findWorstP[5,1]  -1.3208352155799830e-01
    x[1,6]    allocateEach[6]  1
    x[1,6]    findWorstP[1,2]  5.5951248360803264e-02
    x[1,6]    findWorstP[1,3]  5.5951248360803264e-02
    x[1,6]    findWorstP[1,4]  5.5951248360803264e-02
    x[1,6]    findWorstP[1,5]  5.5951248360803264e-02
    x[1,6]    findWorstP[2,1]  -1.5173332223563193e-01
    x[1,6]    findWorstP[3,1]  -2.3323724483817287e-01
    x[1,6]    findWorstP[4,1]  -9.2479783406362440e-02
    x[1,6]    findWorstP[5,1]  -1.2013752948853086e-01
    x[1,7]    allocateEach[7]  1
    x[1,7]    findWorstP[1,2]  1.5504872592630686e-01
    x[1,7]    findWorstP[1,3]  1.5504872592630686e-01
    x[1,7]    findWorstP[1,4]  1.5504872592630686e-01
    x[1,7]    findWorstP[1,5]  1.5504872592630686e-01
    x[1,7]    findWorstP[2,1]  -2.4803362603520743e-02
    x[1,7]    findWorstP[3,1]  -2.0717617005320023e-02
    x[1,7]    findWorstP[4,1]  -9.8838659114388508e-02
    x[1,7]    findWorstP[5,1]  -1.4151985142799781e-01
    x[2,1]    allocateEach[1]  1
    x[2,1]    findWorstP[1,2]  -1.8148157671440693e-01
    x[2,1]    findWorstP[2,1]  1.6760997128469765e-01
    x[2,1]    findWorstP[2,3]  1.6760997128469765e-01
    x[2,1]    findWorstP[2,4]  1.6760997128469765e-01
    x[2,1]    findWorstP[2,5]  1.6760997128469765e-01
    x[2,1]    findWorstP[3,2]  -4.2630481145562352e-02
    x[2,1]    findWorstP[4,2]  -1.7811976773182289e-01
    x[2,1]    findWorstP[5,2]  -1.2267228830999349e-01
    x[2,2]    allocateEach[2]  1
    x[2,2]    findWorstP[1,2]  -2.5185775629322982e-01
    x[2,2]    findWorstP[2,1]  1.8773149111490281e-01
    x[2,2]    findWorstP[2,3]  1.8773149111490281e-01
    x[2,2]    findWorstP[2,4]  1.8773149111490281e-01
    x[2,2]    findWorstP[2,5]  1.8773149111490281e-01
    x[2,2]    findWorstP[3,2]  -1.3604724741615692e-01
    x[2,2]    findWorstP[4,2]  -0.150671511524349
    x[2,2]    findWorstP[5,2]  -2.4594689554785928e-03
    x[2,3]    allocateEach[3]  1
    x[2,3]    findWorstP[1,2]  -6.7882029261268672e-03
    x[2,3]    findWorstP[2,1]  1.4149569270464854e-02
    x[2,3]    findWorstP[2,3]  1.4149569270464854e-02
    x[2,3]    findWorstP[2,4]  1.4149569270464854e-02
    x[2,3]    findWorstP[2,5]  1.4149569270464854e-02
    x[2,3]    findWorstP[3,2]  -2.3028428132836484e-01
    x[2,3]    findWorstP[4,2]  -1.5054682768693670e-01
    x[2,3]    findWorstP[5,2]  -4.5625658786327364e-02
    x[2,4]    allocateEach[4]  1
    x[2,4]    findWorstP[1,2]  -5.5154148774780795e-02
    x[2,4]    findWorstP[2,1]  1.7535061800324606e-01
    x[2,4]    findWorstP[2,3]  1.7535061800324606e-01
    x[2,4]    findWorstP[2,4]  1.7535061800324606e-01
    x[2,4]    findWorstP[2,5]  1.7535061800324606e-01
    x[2,4]    findWorstP[3,2]  -3.1217042817970893e-02
    x[2,4]    findWorstP[4,2]  -2.7537316091339817e-02
    x[2,4]    findWorstP[5,2]  -2.3472870551623753e-01
    x[2,5]    allocateEach[5]  1
    x[2,5]    findWorstP[1,2]  -8.8015222030804044e-02
    x[2,5]    findWorstP[2,1]  1.1215614465853760e-01
    x[2,5]    findWorstP[2,3]  1.1215614465853760e-01
    x[2,5]    findWorstP[2,4]  1.1215614465853760e-01
    x[2,5]    findWorstP[2,5]  1.1215614465853760e-01
    x[2,5]    findWorstP[3,2]  -1.1837633879397219e-01
    x[2,5]    findWorstP[4,2]  -1.5931032025934239e-01
    x[2,5]    findWorstP[5,2]  -1.3208352155799830e-01
    x[2,6]    allocateEach[6]  1
    x[2,6]    findWorstP[1,2]  -5.5951248360803264e-02
    x[2,6]    findWorstP[2,1]  1.5173332223563193e-01
    x[2,6]    findWorstP[2,3]  1.5173332223563193e-01
    x[2,6]    findWorstP[2,4]  1.5173332223563193e-01
    x[2,6]    findWorstP[2,5]  1.5173332223563193e-01
    x[2,6]    findWorstP[3,2]  -2.3323724483817287e-01
    x[2,6]    findWorstP[4,2]  -9.2479783406362440e-02
    x[2,6]    findWorstP[5,2]  -1.2013752948853086e-01
    x[2,7]    allocateEach[7]  1
    x[2,7]    findWorstP[1,2]  -1.5504872592630686e-01
    x[2,7]    findWorstP[2,1]  2.4803362603520743e-02
    x[2,7]    findWorstP[2,3]  2.4803362603520743e-02
    x[2,7]    findWorstP[2,4]  2.4803362603520743e-02
    x[2,7]    findWorstP[2,5]  2.4803362603520743e-02
    x[2,7]    findWorstP[3,2]  -2.0717617005320023e-02
    x[2,7]    findWorstP[4,2]  -9.8838659114388508e-02
    x[2,7]    findWorstP[5,2]  -1.4151985142799781e-01
    x[3,1]    allocateEach[1]  1
    x[3,1]    findWorstP[1,3]  -1.8148157671440693e-01
    x[3,1]    findWorstP[2,3]  -1.6760997128469765e-01
    x[3,1]    findWorstP[3,1]  4.2630481145562352e-02
    x[3,1]    findWorstP[3,2]  4.2630481145562352e-02
    x[3,1]    findWorstP[3,4]  4.2630481145562352e-02
    x[3,1]    findWorstP[3,5]  4.2630481145562352e-02
    x[3,1]    findWorstP[4,3]  -1.7811976773182289e-01
    x[3,1]    findWorstP[5,3]  -1.2267228830999349e-01
    x[3,2]    allocateEach[2]  1
    x[3,2]    findWorstP[1,3]  -2.5185775629322982e-01
    x[3,2]    findWorstP[2,3]  -1.8773149111490281e-01
    x[3,2]    findWorstP[3,1]  1.3604724741615692e-01
    x[3,2]    findWorstP[3,2]  1.3604724741615692e-01
    x[3,2]    findWorstP[3,4]  1.3604724741615692e-01
    x[3,2]    findWorstP[3,5]  1.3604724741615692e-01
    x[3,2]    findWorstP[4,3]  -0.150671511524349
    x[3,2]    findWorstP[5,3]  -2.4594689554785928e-03
    x[3,3]    allocateEach[3]  1
    x[3,3]    findWorstP[1,3]  -6.7882029261268672e-03
    x[3,3]    findWorstP[2,3]  -1.4149569270464854e-02
    x[3,3]    findWorstP[3,1]  2.3028428132836484e-01
    x[3,3]    findWorstP[3,2]  2.3028428132836484e-01
    x[3,3]    findWorstP[3,4]  2.3028428132836484e-01
    x[3,3]    findWorstP[3,5]  2.3028428132836484e-01
    x[3,3]    findWorstP[4,3]  -1.5054682768693670e-01
    x[3,3]    findWorstP[5,3]  -4.5625658786327364e-02
    x[3,4]    allocateEach[4]  1
    x[3,4]    findWorstP[1,3]  -5.5154148774780795e-02
    x[3,4]    findWorstP[2,3]  -1.7535061800324606e-01
    x[3,4]    findWorstP[3,1]  3.1217042817970893e-02
    x[3,4]    findWorstP[3,2]  3.1217042817970893e-02
    x[3,4]    findWorstP[3,4]  3.1217042817970893e-02
    x[3,4]    findWorstP[3,5]  3.1217042817970893e-02
    x[3,4]    findWorstP[4,3]  -2.7537316091339817e-02
    x[3,4]    findWorstP[5,3]  -2.3472870551623753e-01
    x[3,5]    allocateEach[5]  1
    x[3,5]    findWorstP[1,3]  -8.8015222030804044e-02
    x[3,5]    findWorstP[2,3]  -1.1215614465853760e-01
    x[3,5]    findWorstP[3,1]  1.1837633879397219e-01
    x[3,5]    findWorstP[3,2]  1.1837633879397219e-01
    x[3,5]    findWorstP[3,4]  1.1837633879397219e-01
    x[3,5]    findWorstP[3,5]  1.1837633879397219e-01
    x[3,5]    findWorstP[4,3]  -1.5931032025934239e-01
    x[3,5]    findWorstP[5,3]  -1.3208352155799830e-01
    x[3,6]    allocateEach[6]  1
    x[3,6]    findWorstP[1,3]  -5.5951248360803264e-02
    x[3,6]    findWorstP[2,3]  -1.5173332223563193e-01
    x[3,6]    findWorstP[3,1]  2.3323724483817287e-01
    x[3,6]    findWorstP[3,2]  2.3323724483817287e-01
    x[3,6]    findWorstP[3,4]  2.3323724483817287e-01
    x[3,6]    findWorstP[3,5]  2.3323724483817287e-01
    x[3,6]    findWorstP[4,3]  -9.2479783406362440e-02
    x[3,6]    findWorstP[5,3]  -1.2013752948853086e-01
    x[3,7]    allocateEach[7]  1
    x[3,7]    findWorstP[1,3]  -1.5504872592630686e-01
    x[3,7]    findWorstP[2,3]  -2.4803362603520743e-02
    x[3,7]    findWorstP[3,1]  2.0717617005320023e-02
    x[3,7]    findWorstP[3,2]  2.0717617005320023e-02
    x[3,7]    findWorstP[3,4]  2.0717617005320023e-02
    x[3,7]    findWorstP[3,5]  2.0717617005320023e-02
    x[3,7]    findWorstP[4,3]  -9.8838659114388508e-02
    x[3,7]    findWorstP[5,3]  -1.4151985142799781e-01
    x[4,1]    allocateEach[1]  1
    x[4,1]    findWorstP[1,4]  -1.8148157671440693e-01
    x[4,1]    findWorstP[2,4]  -1.6760997128469765e-01
    x[4,1]    findWorstP[3,4]  -4.2630481145562352e-02
    x[4,1]    findWorstP[4,1]  1.7811976773182289e-01
    x[4,1]    findWorstP[4,2]  1.7811976773182289e-01
    x[4,1]    findWorstP[4,3]  1.7811976773182289e-01
    x[4,1]    findWorstP[4,5]  1.7811976773182289e-01
    x[4,1]    findWorstP[5,4]  -1.2267228830999349e-01
    x[4,2]    allocateEach[2]  1
    x[4,2]    findWorstP[1,4]  -2.5185775629322982e-01
    x[4,2]    findWorstP[2,4]  -1.8773149111490281e-01
    x[4,2]    findWorstP[3,4]  -1.3604724741615692e-01
    x[4,2]    findWorstP[4,1]  0.150671511524349
    x[4,2]    findWorstP[4,2]  0.150671511524349
    x[4,2]    findWorstP[4,3]  0.150671511524349
    x[4,2]    findWorstP[4,5]  0.150671511524349
    x[4,2]    findWorstP[5,4]  -2.4594689554785928e-03
    x[4,3]    allocateEach[3]  1
    x[4,3]    findWorstP[1,4]  -6.7882029261268672e-03
    x[4,3]    findWorstP[2,4]  -1.4149569270464854e-02
    x[4,3]    findWorstP[3,4]  -2.3028428132836484e-01
    x[4,3]    findWorstP[4,1]  1.5054682768693670e-01
    x[4,3]    findWorstP[4,2]  1.5054682768693670e-01
    x[4,3]    findWorstP[4,3]  1.5054682768693670e-01
    x[4,3]    findWorstP[4,5]  1.5054682768693670e-01
    x[4,3]    findWorstP[5,4]  -4.5625658786327364e-02
    x[4,4]    allocateEach[4]  1
    x[4,4]    findWorstP[1,4]  -5.5154148774780795e-02
    x[4,4]    findWorstP[2,4]  -1.7535061800324606e-01
    x[4,4]    findWorstP[3,4]  -3.1217042817970893e-02
    x[4,4]    findWorstP[4,1]  2.7537316091339817e-02
    x[4,4]    findWorstP[4,2]  2.7537316091339817e-02
    x[4,4]    findWorstP[4,3]  2.7537316091339817e-02
    x[4,4]    findWorstP[4,5]  2.7537316091339817e-02
    x[4,4]    findWorstP[5,4]  -2.3472870551623753e-01
    x[4,5]    allocateEach[5]  1
    x[4,5]    findWorstP[1,4]  -8.8015222030804044e-02
    x[4,5]    findWorstP[2,4]  -1.1215614465853760e-01
    x[4,5]    findWorstP[3,4]  -1.1837633879397219e-01
    x[4,5]    findWorstP[4,1]  1.5931032025934239e-01
    x[4,5]    findWorstP[4,2]  1.5931032025934239e-01
    x[4,5]    findWorstP[4,3]  1.5931032025934239e-01
    x[4,5]    findWorstP[4,5]  1.5931032025934239e-01
    x[4,5]    findWorstP[5,4]  -1.3208352155799830e-01
    x[4,6]    allocateEach[6]  1
    x[4,6]    findWorstP[1,4]  -5.5951248360803264e-02
    x[4,6]    findWorstP[2,4]  -1.5173332223563193e-01
    x[4,6]    findWorstP[3,4]  -2.3323724483817287e-01
    x[4,6]    findWorstP[4,1]  9.2479783406362440e-02
    x[4,6]    findWorstP[4,2]  9.2479783406362440e-02
    x[4,6]    findWorstP[4,3]  9.2479783406362440e-02
    x[4,6]    findWorstP[4,5]  9.2479783406362440e-02
    x[4,6]    findWorstP[5,4]  -1.2013752948853086e-01
    x[4,7]    allocateEach[7]  1
    x[4,7]    findWorstP[1,4]  -1.5504872592630686e-01
    x[4,7]    findWorstP[2,4]  -2.4803362603520743e-02
    x[4,7]    findWorstP[3,4]  -2.0717617005320023e-02
    x[4,7]    findWorstP[4,1]  9.8838659114388508e-02
    x[4,7]    findWorstP[4,2]  9.8838659114388508e-02
    x[4,7]    findWorstP[4,3]  9.8838659114388508e-02
    x[4,7]    findWorstP[4,5]  9.8838659114388508e-02
    x[4,7]    findWorstP[5,4]  -1.4151985142799781e-01
    x[5,1]    allocateEach[1]  1
    x[5,1]    findWorstP[1,5]  -1.8148157671440693e-01
    x[5,1]    findWorstP[2,5]  -1.6760997128469765e-01
    x[5,1]    findWorstP[3,5]  -4.2630481145562352e-02
    x[5,1]    findWorstP[4,5]  -1.7811976773182289e-01
    x[5,1]    findWorstP[5,1]  1.2267228830999349e-01
    x[5,1]    findWorstP[5,2]  1.2267228830999349e-01
    x[5,1]    findWorstP[5,3]  1.2267228830999349e-01
    x[5,1]    findWorstP[5,4]  1.2267228830999349e-01
    x[5,2]    allocateEach[2]  1
    x[5,2]    findWorstP[1,5]  -2.5185775629322982e-01
    x[5,2]    findWorstP[2,5]  -1.8773149111490281e-01
    x[5,2]    findWorstP[3,5]  -1.3604724741615692e-01
    x[5,2]    findWorstP[4,5]  -0.150671511524349
    x[5,2]    findWorstP[5,1]  2.4594689554785928e-03
    x[5,2]    findWorstP[5,2]  2.4594689554785928e-03
    x[5,2]    findWorstP[5,3]  2.4594689554785928e-03
    x[5,2]    findWorstP[5,4]  2.4594689554785928e-03
    x[5,3]    allocateEach[3]  1
    x[5,3]    findWorstP[1,5]  -6.7882029261268672e-03
    x[5,3]    findWorstP[2,5]  -1.4149569270464854e-02
    x[5,3]    findWorstP[3,5]  -2.3028428132836484e-01
    x[5,3]    findWorstP[4,5]  -1.5054682768693670e-01
    x[5,3]    findWorstP[5,1]  4.5625658786327364e-02
    x[5,3]    findWorstP[5,2]  4.5625658786327364e-02
    x[5,3]    findWorstP[5,3]  4.5625658786327364e-02
    x[5,3]    findWorstP[5,4]  4.5625658786327364e-02
    x[5,4]    allocateEach[4]  1
    x[5,4]    findWorstP[1,5]  -5.5154148774780795e-02
    x[5,4]    findWorstP[2,5]  -1.7535061800324606e-01
    x[5,4]    findWorstP[3,5]  -3.1217042817970893e-02
    x[5,4]    findWorstP[4,5]  -2.7537316091339817e-02
    x[5,4]    findWorstP[5,1]  2.3472870551623753e-01
    x[5,4]    findWorstP[5,2]  2.3472870551623753e-01
    x[5,4]    findWorstP[5,3]  2.3472870551623753e-01
    x[5,4]    findWorstP[5,4]  2.3472870551623753e-01
    x[5,5]    allocateEach[5]  1
    x[5,5]    findWorstP[1,5]  -8.8015222030804044e-02
    x[5,5]    findWorstP[2,5]  -1.1215614465853760e-01
    x[5,5]    findWorstP[3,5]  -1.1837633879397219e-01
    x[5,5]    findWorstP[4,5]  -1.5931032025934239e-01
    x[5,5]    findWorstP[5,1]  1.3208352155799830e-01
    x[5,5]    findWorstP[5,2]  1.3208352155799830e-01
    x[5,5]    findWorstP[5,3]  1.3208352155799830e-01
    x[5,5]    findWorstP[5,4]  1.3208352155799830e-01
    x[5,6]    allocateEach[6]  1
    x[5,6]    findWorstP[1,5]  -5.5951248360803264e-02
    x[5,6]    findWorstP[2,5]  -1.5173332223563193e-01
    x[5,6]    findWorstP[3,5]  -2.3323724483817287e-01
    x[5,6]    findWorstP[4,5]  -9.2479783406362440e-02
    x[5,6]    findWorstP[5,1]  1.2013752948853086e-01
    x[5,6]    findWorstP[5,2]  1.2013752948853086e-01
    x[5,6]    findWorstP[5,3]  1.2013752948853086e-01
    x[5,6]    findWorstP[5,4]  1.2013752948853086e-01
    x[5,7]    allocateEach[7]  1
    x[5,7]    findWorstP[1,5]  -1.5504872592630686e-01
    x[5,7]    findWorstP[2,5]  -2.4803362603520743e-02
    x[5,7]    findWorstP[3,5]  -2.0717617005320023e-02
    x[5,7]    findWorstP[4,5]  -9.8838659114388508e-02
    x[5,7]    findWorstP[5,1]  1.4151985142799781e-01
    x[5,7]    findWorstP[5,2]  1.4151985142799781e-01
    x[5,7]    findWorstP[5,3]  1.4151985142799781e-01
    x[5,7]    findWorstP[5,4]  1.4151985142799781e-01
    MARKER    'MARKER'                 'INTEND'
RHS
    RHS1      allocateEach[1]  1
    RHS1      allocateEach[2]  1
    RHS1      allocateEach[3]  1
    RHS1      allocateEach[4]  1
    RHS1      allocateEach[5]  1
    RHS1      allocateEach[6]  1
    RHS1      allocateEach[7]  1
    RHS1      allocateAllCash  1
BOUNDS
 UP BND1      z         1
 MI BND1      cashProportion[1]
 UP BND1      cashProportion[1]  1
 MI BND1      cashProportion[2]
 UP BND1      cashProportion[2]  1
 MI BND1      cashProportion[3]
 UP BND1      cashProportion[3]  1
 MI BND1      cashProportion[4]
 UP BND1      cashProportion[4]  1
 MI BND1      cashProportion[5]
 UP BND1      cashProportion[5]  1
 BV BND1      x[1,1]  
 BV BND1      x[1,2]  
 BV BND1      x[1,3]  
 BV BND1      x[1,4]  
 BV BND1      x[1,5]  
 BV BND1      x[1,6]  
 BV BND1      x[1,7]  
 BV BND1      x[2,1]  
 BV BND1      x[2,2]  
 BV BND1      x[2,3]  
 BV BND1      x[2,4]  
 BV BND1      x[2,5]  
 BV BND1      x[2,6]  
 BV BND1      x[2,7]  
 BV BND1      x[3,1]  
 BV BND1      x[3,2]  
 BV BND1      x[3,3]  
 BV BND1      x[3,4]  
 BV BND1      x[3,5]  
 BV BND1      x[3,6]  
 BV BND1      x[3,7]  
 BV BND1      x[4,1]  
 BV BND1      x[4,2]  
 BV BND1      x[4,3]  
 BV BND1      x[4,4]  
 BV BND1      x[4,5]  
 BV BND1      x[4,6]  
 BV BND1      x[4,7]  
 BV BND1      x[5,1]  
 BV BND1      x[5,2]  
 BV BND1      x[5,3]  
 BV BND1      x[5,4]  
 BV BND1      x[5,5]  
 BV BND1      x[5,6]  
 BV BND1      x[5,7]  
ENDATA
